3 3 2
20 0 36 2 20 0 2 1 15 2 8 0 0 2 35 1 21 2 35 1 10 0 31 1 13 0 11 1 5 2 26 0 10 2 46 0 24 1 34 0 25 
20 2 11 1 27 0 43 1 29 2 4 0 11 1 34 2 28 0 44 2 17 1 23 0 30 1 9 2 33 1 32 0 5 2 35 1 43 2 25 0 43 
20 1 11 2 34 1 17 2 1 0 30 2 33 1 47 2 39 0 5 1 27 0 36 2 41 1 48 2 27 0 13 2 22 0 49 2 29 0 19 2 18 

-------------
